
Gurobi 6.5.2 (linux64) logging started Mon Aug 29 10:58:07 2016

Optimize a model with 201 rows, 3565 columns and 7131 nonzeros
Coefficient statistics:
  Matrix range    [1e+00, 2e+00]
  Objective range [1e+00, 1e+02]
  Bounds range    [1e+00, 1e+00]
  RHS range       [1e+00, 1e+00]
Found heuristic solution: objective 5337
Presolve removed 101 rows and 100 columns
Presolve time: 0.01s
Presolved: 100 rows, 3465 columns, 6930 nonzeros
Variable types: 0 continuous, 3465 integer (3465 binary)

Root relaxation: objective 8.950000e+02, 138 iterations, 0.00 seconds

    Nodes    |    Current Node    |     Objective Bounds      |     Work
 Expl Unexpl |  Obj  Depth IntInf | Incumbent    BestBd   Gap | It/Node Time

     0     0  895.00000    0   12 5337.00000  895.00000  83.2%     -    0s
H    0     0                     968.0000000  895.00000  7.54%     -    0s
H    0     0                     897.0000000  895.00000  0.22%     -    0s
     0     0 infeasible    0       897.00000  896.00090  0.11%     -    0s

Cutting planes:
  Clique: 1
  Zero half: 4

Explored 0 nodes (144 simplex iterations) in 0.04 seconds
Thread count was 8 (of 8 available processors)

Optimal solution found (tolerance 1.00e-04)
Best objective 8.970000000000e+02, best bound 8.970000000000e+02, gap 0.0%
